p edge 49 116
e 1 15
e 1 23
e 1 27
e 1 36
e 2 3
e 2 4
e 2 27
e 2 30
e 2 34
e 2 37
e 2 42
e 3 19
e 3 30
e 3 39
e 3 40
e 3 47
e 3 49
e 4 5
e 4 32
e 5 24
e 6 11
e 6 15
e 6 22
e 6 36
e 7 13
e 7 16
e 7 21
e 7 24
e 7 32
e 7 33
e 7 40
e 8 15
e 8 33
e 8 36
e 8 37
e 8 44
e 9 22
e 9 30
e 9 39
e 10 11
e 10 14
e 10 25
e 10 34
e 10 47
e 11 16
e 11 22
e 11 26
e 11 27
e 12 31
e 12 38
e 12 46
e 13 22
e 13 33
e 13 40
e 13 41
e 14 37
e 14 40
e 14 47
e 15 16
e 15 33
e 15 48
e 16 42
e 16 43
e 16 47
e 18 22
e 18 24
e 18 32
e 18 33
e 18 36
e 18 49
e 19 24
e 19 35
e 19 37
e 19 46
e 20 26
e 20 30
e 20 45
e 20 48
e 21 33
e 21 36
e 21 40
e 21 43
e 22 32
e 22 42
e 22 43
e 22 46
e 23 24
e 23 26
e 23 27
e 26 27
e 26 36
e 26 41
e 26 45
e 27 30
e 29 35
e 30 33
e 30 39
e 30 46
e 30 48
e 31 36
e 31 45
e 31 46
e 32 41
e 33 34
e 34 38
e 34 45
e 35 41
e 36 44
e 38 43
e 38 44
e 39 48
e 39 49
e 40 41
e 40 44
e 43 46
e 46 49
